86 86
29 76
14 23
9 58
16 33
20 42
5 20
16 70
24 80
1 2
26 67
6 73
40 39
38 52
13 41
19 82
12 85
20 46
24 69
14 13
30 21
41 81
42 5
3 32
33 26
35 59
22 1
13 36
11 4
31 78
32 9
4 17
7 65
3 24
5 48
26 19
7 66
28 15
30 56
36 3
35 60
23 29
15 84
42 68
39 57
8 83
28 40
41 79
27 10
10 86
34 61
2 38
15 18
8 47
17 77
21 16
38 25
32 74
17 44
43 55
27 50
23 49
21 72
37 63
1 14
12 34
37 11
25 31
19 6
25 51
22 53
2 22
18 12
34 64
39 45
36 30
29 8
43 43
40 35
6 28
31 54
4 37
18 71
11 7
33 27
10 62
9 75
